networks/zoo_72_1008/zoo_72_1008-lower.txt
Number of groups: 36
Flow 1: {1 2 0} {2 38 0} 
Flow 2: {1 4 0} {4 28 0} {28 3 0} {3 39 0} 
Flow 3: {1 7 0} {7 5 0} {5 6 0} {6 42 0} 
Flow 4: {7 43 0} 
Flow 5: {7 8 0} {8 44 0} 
Flow 6: {6 9 0} {9 45 0} 
Flow 7: {6 10 0} {10 46 0} 
Flow 8: {10 22 0} {22 12 0} {13 11 0} {11 47 0} 
Flow 8: {12 13 0} Flow 9: {12 48 0} 
Flow 10: {13 49 0} 
Flow 11: {10 35 0} {35 34 0} {34 15 0} {15 14 0} {14 50 0} 
Flow 12: {15 51 0} 
Flow 13: {35 16 0} {16 52 0} 
Flow 14: {9 24 0} {24 23 0} {23 18 0} {18 17 0} {17 53 0} 
Flow 15: {18 54 0} 
Flow 16: {9 21 0} {21 20 0} {20 19 0} {19 55 0} 
Flow 17: {20 56 0} 
Flow 18: {21 57 0} 
Flow 19: {22 58 0} 
Flow 20: {24 60 0} 
Flow 21: {23 25 0} {25 61 0} 
Flow 22: {19 26 0} {26 62 0} 
Flow 23: {28 64 0} 
Flow 24: {28 29 0} {29 65 0} 
Flow 25: {29 30 0} {30 66 0} 
Flow 26: {30 31 0} {31 67 0} 
Flow 27: {31 32 0} {32 68 0} 
Flow 28: {32 33 0} {33 69 0} 
Flow 29: {34 70 0} 
Flow 30: {35 71 0} 
Flow 31: {29 27 0} {27 36 0} {36 72 0} 
Flow 32: {2 1 0} {1 37 0} 
Flow 58: {3 28 0} {28 4 0} {4 1 0} Flow 61: {36 35 0} {35 10 0} Flow 102: {23 59 0} 
Flow 115: {5 7 0} {7 1 0} Flow 137: {35 32 0} {32 31 0} Flow 141: {35 36 0} Flow 142: {6 5 0} Flow 145: {4 40 0} 
Flow 166: {36 27 0} {27 63 0} 
Flow 168: {27 29 0} Flow 169: {31 30 0} Flow 206: {8 7 0} Flow 230: {9 6 0} Flow 236: {18 13 0} Flow 239: {13 14 0} Flow 257: {10 6 0} Flow 259: {29 28 0} Flow 270: {13 18 0} Flow 287: {11 13 0} {13 12 0} {12 22 0} {22 10 0} Flow 292: {14 15 0} Flow 296: {18 23 0} {23 24 0} {24 9 0} Flow 302: {15 34 0} Flow 321: {25 19 0} Flow 322: {19 20 0} Flow 334: {34 33 0} Flow 371: {14 13 0} Flow 373: {34 35 0} Flow 394: {33 32 0} Flow 433: {16 35 0} Flow 457: {17 18 0} Flow 509: {20 21 0} {21 9 0} Flow 513: {5 41 0} 
Flow 519: {19 25 0} {25 23 0} Flow 728: {26 19 0} Flow 823: {30 29 0} Flow 826: {32 35 0} Flow 831: {33 34 0} Time taken running everything: 1 seconds
