networks/zoo_72_1008/zoo_72_1008-lower.sol
<?xml version = "1.0" encoding="UTF-8" standalone="yes"?>
<CPLEXSolution version="1.2">
 <header
   problemName="networks/zoo_72_1008/zoo_72_1008-lower.lp"
   solutionName="incumbent"
   solutionIndex="-1"
   objectiveValue="36"
   solutionTypeValue="3"
   solutionTypeString="primal"
   solutionStatusValue="101"
   solutionStatusString="integer optimal solution"
   solutionMethodString="mip"
   primalFeasible="1"
   dualFeasible="1"
   MIPNodes="0"
   MIPIterations="0"
   writeLevel="3"/>
 <quality
   epInt="1.0000000000000001e-05"
   epRHS="9.9999999999999995e-07"
   maxIntInfeas="0"
   maxPrimalInfeas="0"
   maxX="1"
   maxSlack="1"/>
 <variables>
  <variable name="Y(1,2)" index="1" value="1"/>
  <variable name="Y(2,3)" index="74" value="1"/>
  <variable name="Y(3,6)" index="149" value="1"/>
  <variable name="Y(4,7)" index="222" value="1"/>
  <variable name="Y(5,8)" index="295" value="1"/>
  <variable name="Y(6,9)" index="368" value="1"/>
  <variable name="Y(7,10)" index="441" value="1"/>
  <variable name="Y(8,11)" index="514" value="1"/>
  <variable name="Y(9,12)" index="587" value="1"/>
  <variable name="Y(10,13)" index="660" value="1"/>
  <variable name="Y(11,14)" index="733" value="1"/>
  <variable name="Y(12,15)" index="806" value="1"/>
  <variable name="Y(13,16)" index="879" value="1"/>
  <variable name="Y(14,17)" index="952" value="1"/>
  <variable name="Y(15,18)" index="1025" value="1"/>
  <variable name="Y(16,19)" index="1098" value="1"/>
  <variable name="Y(17,20)" index="1171" value="1"/>
  <variable name="Y(18,21)" index="1244" value="1"/>
  <variable name="Y(19,22)" index="1317" value="1"/>
  <variable name="Y(20,24)" index="1391" value="1"/>
  <variable name="Y(21,25)" index="1464" value="1"/>
  <variable name="Y(22,26)" index="1537" value="1"/>
  <variable name="Y(23,28)" index="1611" value="1"/>
  <variable name="Y(24,29)" index="1684" value="1"/>
  <variable name="Y(25,30)" index="1757" value="1"/>
  <variable name="Y(26,31)" index="1830" value="1"/>
  <variable name="Y(27,32)" index="1903" value="1"/>
  <variable name="Y(28,33)" index="1976" value="1"/>
  <variable name="Y(29,34)" index="2049" value="1"/>
  <variable name="Y(30,35)" index="2122" value="1"/>
  <variable name="Y(31,36)" index="2195" value="1"/>
  <variable name="Y(32,1)" index="2232" value="1"/>
  <variable name="Y(102,23)" index="7294" value="1"/>
  <variable name="Y(145,4)" index="10371" value="1"/>
  <variable name="Y(166,27)" index="11906" value="1"/>
  <variable name="Y(513,5)" index="36868" value="1"/>
  <variable name="X(1,2,1)" index="72576" value="1"/>
  <variable name="X(1,4,2)" index="73585" value="1"/>
  <variable name="X(1,7,3)" index="74594" value="1"/>
  <variable name="X(1,37,32)" index="75631" value="1"/>
  <variable name="X(2,1,32)" index="76639" value="1"/>
  <variable name="X(2,38,1)" index="77616" value="1"/>
  <variable name="X(3,28,58)" index="78681" value="1"/>
  <variable name="X(3,39,2)" index="79633" value="1"/>
  <variable name="X(4,1,58)" index="80697" value="1"/>
  <variable name="X(4,28,2)" index="81649" value="1"/>
  <variable name="X(4,40,145)" index="82800" value="1"/>
  <variable name="X(5,6,3)" index="83666" value="1"/>
  <variable name="X(5,7,115)" index="84786" value="1"/>
  <variable name="X(5,41,513)" index="86192" value="1"/>
  <variable name="X(6,5,142)" index="86829" value="1"/>
  <variable name="X(6,9,6)" index="87701" value="1"/>
  <variable name="X(6,10,7)" index="88710" value="1"/>
  <variable name="X(6,42,3)" index="89714" value="1"/>
  <variable name="X(7,1,115)" index="90834" value="1"/>
  <variable name="X(7,5,3)" index="91730" value="1"/>
  <variable name="X(7,8,5)" index="92740" value="1"/>
  <variable name="X(7,43,4)" index="93747" value="1"/>
  <variable name="X(8,7,206)" index="94957" value="1"/>
  <variable name="X(8,44,5)" index="95764" value="1"/>
  <variable name="X(9,6,230)" index="96997" value="1"/>
  <variable name="X(9,21,16)" index="97791" value="1"/>
  <variable name="X(9,24,14)" index="98797" value="1"/>
  <variable name="X(9,45,6)" index="99797" value="1"/>
  <variable name="X(10,6,257)" index="101056" value="1"/>
  <variable name="X(10,22,8)" index="101815" value="1"/>
  <variable name="X(10,35,11)" index="102826" value="1"/>
  <variable name="X(10,46,7)" index="103830" value="1"/>
  <variable name="X(11,13,287)" index="105118" value="1"/>
  <variable name="X(11,47,8)" index="105847" value="1"/>
  <variable name="X(12,13,8)" index="106855" value="1"/>
  <variable name="X(12,22,287)" index="108142" value="1"/>
  <variable name="X(12,48,9)" index="108872" value="1"/>
  <variable name="X(13,11,8)" index="109879" value="1"/>
  <variable name="X(13,12,287)" index="111166" value="1"/>
  <variable name="X(13,14,239)" index="112126" value="1"/>
  <variable name="X(13,18,270)" index="113165" value="1"/>
  <variable name="X(13,49,10)" index="113913" value="1"/>
  <variable name="X(14,13,371)" index="115282" value="1"/>
  <variable name="X(14,15,292)" index="116211" value="1"/>
  <variable name="X(14,50,11)" index="116938" value="1"/>
  <variable name="X(15,14,11)" index="117946" value="1"/>
  <variable name="X(15,34,302)" index="119245" value="1"/>
  <variable name="X(15,51,12)" index="119963" value="1"/>
  <variable name="X(16,35,433)" index="121392" value="1"/>
  <variable name="X(16,52,13)" index="121980" value="1"/>
  <variable name="X(17,18,457)" index="123432" value="1"/>
  <variable name="X(17,53,14)" index="123997" value="1"/>
  <variable name="X(18,13,236)" index="125227" value="1"/>
  <variable name="X(18,17,14)" index="126013" value="1"/>
  <variable name="X(18,23,296)" index="127303" value="1"/>
  <variable name="X(18,54,15)" index="128030" value="1"/>
  <variable name="X(19,20,322)" index="129345" value="1"/>
  <variable name="X(19,25,519)" index="130550" value="1"/>
  <variable name="X(19,26,22)" index="131061" value="1"/>
  <variable name="X(19,55,16)" index="132063" value="1"/>
  <variable name="X(20,19,16)" index="133071" value="1"/>
  <variable name="X(20,21,509)" index="134572" value="1"/>
  <variable name="X(20,56,17)" index="135088" value="1"/>
  <variable name="X(21,9,509)" index="136588" value="1"/>
  <variable name="X(21,20,16)" index="137103" value="1"/>
  <variable name="X(21,57,18)" index="138113" value="1"/>
  <variable name="X(22,10,287)" index="139390" value="1"/>
  <variable name="X(22,12,8)" index="140119" value="1"/>
  <variable name="X(22,58,19)" index="141138" value="1"/>
  <variable name="X(23,18,14)" index="142141" value="1"/>
  <variable name="X(23,24,296)" index="143431" value="1"/>
  <variable name="X(23,25,21)" index="144164" value="1"/>
  <variable name="X(23,59,102)" index="145253" value="1"/>
  <variable name="X(24,9,296)" index="146455" value="1"/>
  <variable name="X(24,23,14)" index="147181" value="1"/>
  <variable name="X(24,60,20)" index="148195" value="1"/>
  <variable name="X(25,19,321)" index="149504" value="1"/>
  <variable name="X(25,23,519)" index="150710" value="1"/>
  <variable name="X(25,61,21)" index="151220" value="1"/>
  <variable name="X(26,19,728)" index="152935" value="1"/>
  <variable name="X(26,62,22)" index="153237" value="1"/>
  <variable name="X(27,29,168)" index="154391" value="1"/>
  <variable name="X(27,36,31)" index="155262" value="1"/>
  <variable name="X(27,63,166)" index="156405" value="1"/>
  <variable name="X(28,3,2)" index="157249" value="1"/>
  <variable name="X(28,4,58)" index="158313" value="1"/>
  <variable name="X(28,29,24)" index="159287" value="1"/>
  <variable name="X(28,64,23)" index="160294" value="1"/>
  <variable name="X(29,27,31)" index="161310" value="1"/>
  <variable name="X(29,28,259)" index="162546" value="1"/>
  <variable name="X(29,30,25)" index="163320" value="1"/>
  <variable name="X(29,65,24)" index="164327" value="1"/>
  <variable name="X(30,29,823)" index="166134" value="1"/>
  <variable name="X(30,31,26)" index="166345" value="1"/>
  <variable name="X(30,66,25)" index="167352" value="1"/>
  <variable name="X(31,30,169)" index="168504" value="1"/>
  <variable name="X(31,32,27)" index="169370" value="1"/>
  <variable name="X(31,67,26)" index="170377" value="1"/>
  <variable name="X(32,31,137)" index="171496" value="1"/>
  <variable name="X(32,33,28)" index="172395" value="1"/>
  <variable name="X(32,35,826)" index="174201" value="1"/>
  <variable name="X(32,68,27)" index="174410" value="1"/>
  <variable name="X(33,32,394)" index="175785" value="1"/>
  <variable name="X(33,34,831)" index="177230" value="1"/>
  <variable name="X(33,69,28)" index="177435" value="1"/>
  <variable name="X(34,15,11)" index="178426" value="1"/>
  <variable name="X(34,33,334)" index="179757" value="1"/>
  <variable name="X(34,35,373)" index="180804" value="1"/>
  <variable name="X(34,70,29)" index="181468" value="1"/>
  <variable name="X(35,10,61)" index="182508" value="1"/>
  <variable name="X(35,16,13)" index="183468" value="1"/>
  <variable name="X(35,32,137)" index="184600" value="1"/>
  <variable name="X(35,34,11)" index="185482" value="1"/>
  <variable name="X(35,36,141)" index="186620" value="1"/>
  <variable name="X(35,71,30)" index="187517" value="1"/>
  <variable name="X(36,27,166)" index="188661" value="1"/>
  <variable name="X(36,35,61)" index="189564" value="1"/>
  <variable name="X(36,72,31)" index="190542" value="1"/>
 </variables>
</CPLEXSolution>
